(set-logic ALL)
(set-option :produce-models true)
(declare-sort BoundSet 0)
(declare-sort UnboundSet 0)
(set-option :finite-model-find true)
(declare-fun IsWarm (BoundSet) Bool)
(declare-fun WillNotReach (BoundSet) Bool)
(declare-fun IsHabitatLoss (BoundSet) Bool)
(declare-fun IsHumanPredation (BoundSet) Bool)
(declare-fun IsMostAnimals (BoundSet) Bool)
(assert (not (=> (exists ((a BoundSet)) (exists ((b BoundSet)) (and (IsWarm b) (not (WillNotReach a))))) (exists ((e BoundSet)) (exists ((c BoundSet)) (exists ((d BoundSet)) (and (IsHabitatLoss c) (or (IsHumanPredation d) (IsMostAnimals e)))))))))
(check-sat)
(get-model)